(declare-const X String)
; www\.thecommunicator\.net\d+http\x3A\x2F\x2Ftv\x2Eseekmo\x2Ecom\x2Fshowme\x2Easpx\x3Fkeyword=
(assert (str.in_re X (re.++ (str.to_re "www.thecommunicator.net") (re.+ (re.range "0" "9")) (str.to_re "http://tv.seekmo.com/showme.aspx?keyword=\u{a}"))))
; ".*?"|".*$|'.*?'|'.*$
(assert (str.in_re X (re.union (re.++ (str.to_re "\u{22}") (re.* re.allchar) (str.to_re "\u{22}")) (re.++ (str.to_re "\u{22}") (re.* re.allchar)) (re.++ (str.to_re "'") (re.* re.allchar) (str.to_re "'")) (re.++ (str.to_re "'") (re.* re.allchar) (str.to_re "\u{a}")))))
(check-sat)

(exit)
